(declare-fun $n () Int)
(declare-fun fp!<root> () Int)
(assert (let ((a!1 (not (= (mod (+ 3618502788666131213697322783095070105623107215331596699973092056135872020478
                           fp!<root>)
                        3618502788666131213697322783095070105623107215331596699973092056135872020481)
                   fp!<root>)))
      (a!3 (exists (($n Int))
             (and (<= 0 $n)
                  (not (<= 3618502788666131213697322783095070105623107215331596699973092056135872020481
                           $n))
                  (= (mod (+ 1 $n)
                          3618502788666131213697322783095070105623107215331596699973092056135872020481)
                     (mod (+ 1 $n)
                          3618502788666131213697322783095070105623107215331596699973092056135872020481))))))
(let ((a!2 (or a!1
               (= $n
                  (mod (+ 1 $n)
                       3618502788666131213697322783095070105623107215331596699973092056135872020481)))))
  (and (<= 0 $n)
       (not (<= 3618502788666131213697322783095070105623107215331596699973092056135872020481
                $n))
       (<= 0 fp!<root>)
       (not (<= 3618502788666131213697322783095070105623107215331596699973092056135872020481
                fp!<root>))
       a!2
       (not a!3)))))
